50
    1   307   298
    2    99    62
    3    92   132
    4   265   285
    5   400   454
    6   342   324
    7   495   463
    8   380   398
    9    83    87
   10   421   444
   11   238   294
   12   492   485
   13   147   174
   14    64    38
   15   404   383
   16   434   463
   17   502   559
   18   384   370
   19   158   115
   20   557   600
   21   434   447
   22    49    66
   23   590   534
   24   425   425
   25   571   567
   26   555   514
   27   293   324
   28     1    18
   29   381   384
   30   507   465
   31   569   532
   32     1     6
   33   362   350
   34   442   447
   35   598   558
   36   260   227
   37   248   254
   38   232   287
   39   608   566
   40   313   361
   41   491   537
   42   465   476
   43   166   184
   44   508   480
   45   480   441
   46    34    85
   47   226   284
   48    80    92
   49    88   105
   50   437   402
601
